*Heading
** Job name: PUENTE Model name: Model-1
** Generated by: Abaqus/CAE Learning Edition 2022
*Preprint, echo=NO, model=NO, history=NO, contact=NO
**
** PARTS
**
*Part, name=VIGA
*Node
      1,           0.,          25.
      2, 0.0777777806,   25.0055561
      3,  0.155555561,   25.0111103
      4,  0.233333334,   25.0166664
      5,  0.311111122,   25.0222225
      6,  0.388888896,   25.0277786
      7,  0.466666669,   25.0333328
      8,  0.544444442,   25.0388889
      9,  0.622222245,    25.044445
     10,  0.699999988,   25.0499992
     11,  0.777777791,   25.0555553
     12,  0.855555534,   25.0611115
     13,  0.933333337,   25.0666676
     14,   1.01111114,   25.0722218
     15,   1.08888888,   25.0777779
     16,   1.16666663,    25.083334
     17,   1.24444449,   25.0888882
     18,   1.32222223,   25.0944443
     19,   1.39999998,   25.1000004
     20,   1.47777772,   25.1055565
     21,   1.55555558,   25.1111107
     22,   1.63333333,   25.1166668
     23,   1.71111107,   25.1222229
     24,   1.78888893,   25.1277771
     25,   1.86666667,   25.1333332
     26,   1.94444442,   25.1388893
     27,   2.02222228,   25.1444435
     28,    2.0999999,   25.1499996
     29,   2.17777777,   25.1555557
     30,   2.25555563,   25.1611118
     31,   2.33333325,    25.166666
     32,   2.41111112,   25.1722221
     33,   2.48888898,   25.1777782
     34,    2.5666666,   25.1833324
     35,   2.64444447,   25.1888885
     36,   2.72222233,   25.1944447
     37,   2.79999995,   25.2000008
     38,   2.87777781,    25.205555
     39,   2.95555544,   25.2111111
     40,    3.0333333,   25.2166672
     41,   3.11111116,   25.2222214
     42,   3.18888879,   25.2277775
     43,   3.26666665,   25.2333336
     44,   3.34444451,   25.2388897
     45,   3.42222214,   25.2444439
     46,          3.5,        25.25
     47,   3.57777786,   25.2555561
     48,   3.65555549,   25.2611103
     49,   3.73333335,   25.2666664
     50,   3.81111121,   25.2722225
     51,   3.88888884,   25.2777786
     52,    3.9666667,   25.2833328
     53,   4.04444456,   25.2888889
     54,   4.12222242,    25.294445
     55,   4.19999981,   25.2999992
     56,   4.27777767,   25.3055553
     57,   4.35555553,   25.3111115
     58,    4.4333334,   25.3166676
     59,   4.51111126,   25.3222218
     60,   4.58888912,   25.3277779
     61,   4.66666651,    25.333334
     62,   4.74444437,   25.3388882
     63,   4.82222223,   25.3444443
     64,    4.9000001,   25.3500004
     65,   4.97777796,   25.3555565
     66,   5.05555534,   25.3611107
     67,   5.13333321,   25.3666668
     68,   5.21111107,   25.3722229
     69,   5.28888893,   25.3777771
     70,   5.36666679,   25.3833332
     71,   5.44444466,   25.3888893
     72,   5.52222204,   25.3944435
     73,    5.5999999,   25.3999996
     74,   5.67777777,   25.4055557
     75,   5.75555563,   25.4111118
     76,   5.83333349,    25.416666
     77,   5.91111088,   25.4222221
     78,   5.98888874,   25.4277782
     79,    6.0666666,   25.4333324
     80,   6.14444447,   25.4388885
     81,   6.22222233,   25.4444447
     82,   6.30000019,   25.4500008
     83,   6.37777758,    25.455555
     84,   6.45555544,   25.4611111
     85,    6.5333333,   25.4666672
     86,   6.61111116,   25.4722214
     87,   6.68888903,   25.4777775
     88,   6.76666689,   25.4833336
     89,   6.84444427,   25.4888897
     90,   6.92222214,   25.4944439
     91,           7.,         25.5
     92,   7.07777786,   25.5055561
     93,   7.15555573,   25.5111103
     94,   7.23333311,   25.5166664
     95,   7.31111097,   25.5222225
     96,   7.38888884,   25.5277786
     97,    7.4666667,   25.5333328
     98,   7.54444456,   25.5388889
     99,   7.62222242,    25.544445
    100,   7.69999981,   25.5499992
    101,   7.77777767,   25.5555553
    102,   7.85555553,   25.5611115
    103,    7.9333334,   25.5666676
    104,   8.01111126,   25.5722218
    105,   8.08888912,   25.5777779
    106,   8.16666698,    25.583334
    107,   8.24444485,   25.5888882
    108,   8.32222176,   25.5944443
    109,   8.39999962,   25.6000004
    110,   8.47777748,   25.6055565
    111,   8.55555534,   25.6111107
    112,   8.63333321,   25.6166668
    113,   8.71111107,   25.6222229
    114,   8.78888893,   25.6277771
    115,   8.86666679,   25.6333332
    116,   8.94444466,   25.6388893
    117,   9.02222252,   25.6444435
    118,   9.10000038,   25.6499996
    119,   9.17777824,   25.6555557
    120,   9.25555515,   25.6611118
    121,   9.33333302,    25.666666
    122,   9.41111088,   25.6722221
    123,   9.48888874,   25.6777782
    124,    9.5666666,   25.6833324
    125,   9.64444447,   25.6888885
    126,   9.72222233,   25.6944447
    127,   9.80000019,   25.7000008
    128,   9.87777805,    25.705555
    129,   9.95555592,   25.7111111
    130,   10.0333338,   25.7166672
    131,   10.1111107,   25.7222214
    132,   10.1888885,   25.7277775
    133,   10.2666664,   25.7333336
    134,   10.3444443,   25.7388897
    135,   10.4222221,   25.7444439
    136,         10.5,        25.75
    137,   10.5777779,   25.7555561
    138,   10.6555557,   25.7611103
    139,   10.7333336,   25.7666664
    140,   10.8111115,   25.7722225
    141,   10.8888893,   25.7777786
    142,   10.9666662,   25.7833328
    143,   11.0444441,   25.7888889
    144,   11.1222219,    25.794445
    145,   11.1999998,   25.7999992
    146,   11.2777777,   25.8055553
    147,   11.3555555,   25.8111115
    148,   11.4333334,   25.8166676
    149,   11.5111113,   25.8222218
    150,   11.5888891,   25.8277779
    151,    11.666667,    25.833334
    152,   11.7444448,   25.8388882
    153,   11.8222218,   25.8444443
    154,   11.8999996,   25.8500004
    155,   11.9777775,   25.8555565
    156,   12.0555553,   25.8611107
    157,   12.1333332,   25.8666668
    158,   12.2111111,   25.8722229
    159,   12.2888889,   25.8777771
    160,   12.3666668,   25.8833332
    161,   12.4444447,   25.8888893
    162,   12.5222225,   25.8944435
    163,   12.6000004,   25.8999996
    164,   12.6777782,   25.9055557
    165,   12.7555552,   25.9111118
    166,    12.833333,    25.916666
    167,   12.9111109,   25.9222221
    168,   12.9888887,   25.9277782
    169,   13.0666666,   25.9333324
    170,   13.1444445,   25.9388885
    171,   13.2222223,   25.9444447
    172,   13.3000002,   25.9500008
    173,   13.3777781,    25.955555
    174,   13.4555559,   25.9611111
    175,   13.5333338,   25.9666672
    176,   13.6111107,   25.9722214
    177,   13.6888885,   25.9777775
    178,   13.7666664,   25.9833336
    179,   13.8444443,   25.9888897
    180,   13.9222221,   25.9944439
    181,          14.,          26.
    182,   14.0777779,   26.0055561
    183,   14.1555557,   26.0111103
    184,   14.2333336,   26.0166664
    185,   14.3111115,   26.0222225
    186,   14.3888893,   26.0277786
    187,   14.4666662,   26.0333328
    188,   14.5444441,   26.0388889
    189,   14.6222219,    26.044445
    190,   14.6999998,   26.0499992
    191,   14.7777777,   26.0555553
    192,   14.8555555,   26.0611115
    193,   14.9333334,   26.0666676
    194,   15.0111113,   26.0722218
    195,   15.0888891,   26.0777779
    196,    15.166667,    26.083334
    197,   15.2444448,   26.0888882
    198,   15.3222218,   26.0944443
    199,   15.3999996,   26.1000004
    200,   15.4777775,   26.1055565
    201,   15.5555553,   26.1111107
    202,   15.6333332,   26.1166668
    203,   15.7111111,   26.1222229
    204,   15.7888889,   26.1277771
    205,   15.8666668,   26.1333332
    206,   15.9444447,   26.1388893
    207,   16.0222225,   26.1444435
    208,   16.1000004,   26.1499996
    209,   16.1777782,   26.1555557
    210,   16.2555561,   26.1611118
    211,    16.333334,    26.166666
    212,   16.4111118,   26.1722221
    213,   16.4888897,   26.1777782
    214,   16.5666676,   26.1833324
    215,   16.6444435,   26.1888885
    216,   16.7222214,   26.1944447
    217,   16.7999992,   26.2000008
    218,   16.8777771,    26.205555
    219,    16.955555,   26.2111111
    220,   17.0333328,   26.2166672
    221,   17.1111107,   26.2222214
    222,   17.1888885,   26.2277775
    223,   17.2666664,   26.2333336
    224,   17.3444443,   26.2388897
    225,   17.4222221,   26.2444439
    226,         17.5,        26.25
    227,   17.5777779,   26.2555561
    228,   17.6555557,   26.2611103
    229,   17.7333336,   26.2666664
    230,   17.8111115,   26.2722225
    231,   17.8888893,   26.2777786
    232,   17.9666672,   26.2833328
    233,    18.044445,   26.2888889
    234,   18.1222229,    26.294445
    235,   18.2000008,   26.2999992
    236,   18.2777786,   26.3055553
    237,   18.3555565,   26.3111115
    238,   18.4333324,   26.3166676
    239,   18.5111103,   26.3222218
    240,   18.5888882,   26.3277779
    241,    18.666666,    26.333334
    242,   18.7444439,   26.3388882
    243,   18.8222218,   26.3444443
    244,   18.8999996,   26.3500004
    245,   18.9777775,   26.3555565
    246,   19.0555553,   26.3611107
    247,   19.1333332,   26.3666668
    248,   19.2111111,   26.3722229
    249,   19.2888889,   26.3777771
    250,   19.3666668,   26.3833332
    251,   19.4444447,   26.3888893
    252,   19.5222225,   26.3944435
    253,   19.6000004,   26.3999996
    254,   19.6777782,   26.4055557
    255,   19.7555561,   26.4111118
    256,    19.833334,    26.416666
    257,   19.9111118,   26.4222221
    258,   19.9888897,   26.4277782
    259,   20.0666676,   26.4333324
    260,   20.1444435,   26.4388885
    261,   20.2222214,   26.4444447
    262,   20.2999992,   26.4500008
    263,   20.3777771,    26.455555
    264,    20.455555,   26.4611111
    265,   20.5333328,   26.4666672
    266,   20.6111107,   26.4722214
    267,   20.6888885,   26.4777775
    268,   20.7666664,   26.4833336
    269,   20.8444443,   26.4888897
    270,   20.9222221,   26.4944439
    271,          21.,         26.5
    272,   21.0777779,   26.5055561
    273,   21.1555557,   26.5111103
    274,   21.2333336,   26.5166664
    275,   21.3111115,   26.5222225
    276,   21.3888893,   26.5277786
    277,   21.4666672,   26.5333328
    278,    21.544445,   26.5388889
    279,   21.6222229,    26.544445
    280,   21.7000008,   26.5499992
    281,   21.7777786,   26.5555553
    282,   21.8555565,   26.5611115
    283,   21.9333324,   26.5666676
    284,   22.0111103,   26.5722218
    285,   22.0888882,   26.5777779
    286,    22.166666,    26.583334
    287,   22.2444439,   26.5888882
    288,   22.3222218,   26.5944443
    289,   22.3999996,   26.6000004
    290,   22.4777775,   26.6055565
    291,   22.5555553,   26.6111107
    292,   22.6333332,   26.6166668
    293,   22.7111111,   26.6222229
    294,   22.7888889,   26.6277771
    295,   22.8666668,   26.6333332
    296,   22.9444447,   26.6388893
    297,   23.0222225,   26.6444435
    298,   23.1000004,   26.6499996
    299,   23.1777782,   26.6555557
    300,   23.2555561,   26.6611118
    301,    23.333334,    26.666666
    302,   23.4111118,   26.6722221
    303,   23.4888897,   26.6777782
    304,   23.5666676,   26.6833324
    305,   23.6444435,   26.6888885
    306,   23.7222214,   26.6944447
    307,   23.7999992,   26.7000008
    308,   23.8777771,    26.705555
    309,    23.955555,   26.7111111
    310,   24.0333328,   26.7166672
    311,   24.1111107,   26.7222214
    312,   24.1888885,   26.7277775
    313,   24.2666664,   26.7333336
    314,   24.3444443,   26.7388897
    315,   24.4222221,   26.7444439
    316,         24.5,        26.75
    317,   24.5777779,   26.7555561
    318,   24.6555557,   26.7611103
    319,   24.7333336,   26.7666664
    320,   24.8111115,   26.7722225
    321,   24.8888893,   26.7777786
    322,   24.9666672,   26.7833328
    323,    25.044445,   26.7888889
    324,   25.1222229,    26.794445
    325,   25.2000008,   26.7999992
    326,   25.2777786,   26.8055553
    327,   25.3555565,   26.8111115
    328,   25.4333324,   26.8166676
    329,   25.5111103,   26.8222218
    330,   25.5888882,   26.8277779
    331,    25.666666,    26.833334
    332,   25.7444439,   26.8388882
    333,   25.8222218,   26.8444443
    334,   25.8999996,   26.8500004
    335,   25.9777775,   26.8555565
    336,   26.0555553,   26.8611107
    337,   26.1333332,   26.8666668
    338,   26.2111111,   26.8722229
    339,   26.2888889,   26.8777771
    340,   26.3666668,   26.8833332
    341,   26.4444447,   26.8888893
    342,   26.5222225,   26.8944435
    343,   26.6000004,   26.8999996
    344,   26.6777782,   26.9055557
    345,   26.7555561,   26.9111118
    346,    26.833334,    26.916666
    347,   26.9111118,   26.9222221
    348,   26.9888897,   26.9277782
    349,   27.0666676,   26.9333324
    350,   27.1444435,   26.9388885
    351,   27.2222214,   26.9444447
    352,   27.2999992,   26.9500008
    353,   27.3777771,    26.955555
    354,    27.455555,   26.9611111
    355,   27.5333328,   26.9666672
    356,   27.6111107,   26.9722214
    357,   27.6888885,   26.9777775
    358,   27.7666664,   26.9833336
    359,   27.8444443,   26.9888897
    360,   27.9222221,   26.9944439
    361,          28.,          27.
    362,   28.0777779,   27.0055561
    363,   28.1555557,   27.0111103
    364,   28.2333336,   27.0166664
    365,   28.3111115,   27.0222225
    366,   28.3888893,   27.0277786
    367,   28.4666672,   27.0333328
    368,    28.544445,   27.0388889
    369,   28.6222229,    27.044445
    370,   28.7000008,   27.0499992
    371,   28.7777786,   27.0555553
    372,   28.8555565,   27.0611115
    373,   28.9333324,   27.0666676
    374,   29.0111103,   27.0722218
    375,   29.0888882,   27.0777779
    376,    29.166666,    27.083334
    377,   29.2444439,   27.0888882
    378,   29.3222218,   27.0944443
    379,   29.3999996,   27.1000004
    380,   29.4777775,   27.1055565
    381,   29.5555553,   27.1111107
    382,   29.6333332,   27.1166668
    383,   29.7111111,   27.1222229
    384,   29.7888889,   27.1277771
    385,   29.8666668,   27.1333332
    386,   29.9444447,   27.1388893
    387,   30.0222225,   27.1444435
    388,   30.1000004,   27.1499996
    389,   30.1777782,   27.1555557
    390,   30.2555561,   27.1611118
    391,    30.333334,    27.166666
    392,   30.4111118,   27.1722221
    393,   30.4888897,   27.1777782
    394,   30.5666676,   27.1833324
    395,   30.6444435,   27.1888885
    396,   30.7222214,   27.1944447
    397,   30.7999992,   27.2000008
    398,   30.8777771,    27.205555
    399,    30.955555,   27.2111111
    400,   31.0333328,   27.2166672
    401,   31.1111107,   27.2222214
    402,   31.1888885,   27.2277775
    403,   31.2666664,   27.2333336
    404,   31.3444443,   27.2388897
    405,   31.4222221,   27.2444439
    406,         31.5,        27.25
    407,   31.5777779,   27.2555561
    408,   31.6555557,   27.2611103
    409,   31.7333336,   27.2666664
    410,   31.8111115,   27.2722225
    411,   31.8888893,   27.2777786
    412,   31.9666672,   27.2833328
    413,    32.044445,   27.2888889
    414,   32.1222229,    27.294445
    415,   32.2000008,   27.2999992
    416,   32.2777786,   27.3055553
    417,   32.3555565,   27.3111115
    418,   32.4333344,   27.3166676
    419,   32.5111122,   27.3222218
    420,   32.5888901,   27.3277779
    421,   32.6666679,    27.333334
    422,   32.7444458,   27.3388882
    423,   32.8222237,   27.3444443
    424,   32.9000015,   27.3500004
    425,   32.9777794,   27.3555565
    426,   33.0555573,   27.3611107
    427,   33.1333351,   27.3666668
    428,    33.211113,   27.3722229
    429,    33.288887,   27.3777771
    430,   33.3666649,   27.3833332
    431,   33.4444427,   27.3888893
    432,   33.5222206,   27.3944435
    433,   33.5999985,   27.3999996
    434,   33.6777763,   27.4055557
    435,   33.7555542,   27.4111118
    436,   33.8333321,    27.416666
    437,   33.9111099,   27.4222221
    438,   33.9888878,   27.4277782
    439,   34.0666656,   27.4333324
    440,   34.1444435,   27.4388885
    441,   34.2222214,   27.4444447
    442,   34.2999992,   27.4500008
    443,   34.3777771,    27.455555
    444,    34.455555,   27.4611111
    445,   34.5333328,   27.4666672
    446,   34.6111107,   27.4722214
    447,   34.6888885,   27.4777775
    448,   34.7666664,   27.4833336
    449,   34.8444443,   27.4888897
    450,   34.9222221,   27.4944439
    451,          35.,         27.5
    452,   35.0777779,   27.5055561
    453,   35.1555557,   27.5111103
    454,   35.2333336,   27.5166664
    455,   35.3111115,   27.5222225
    456,   35.3888893,   27.5277786
    457,   35.4666672,   27.5333328
    458,    35.544445,   27.5388889
    459,   35.6222229,    27.544445
    460,   35.7000008,   27.5499992
    461,   35.7777786,   27.5555553
    462,   35.8555565,   27.5611115
    463,   35.9333344,   27.5666676
    464,   36.0111122,   27.5722218
    465,   36.0888901,   27.5777779
    466,   36.1666679,    27.583334
    467,   36.2444458,   27.5888882
    468,   36.3222237,   27.5944443
    469,   36.4000015,   27.6000004
    470,   36.4777794,   27.6055565
    471,   36.5555573,   27.6111107
    472,   36.6333351,   27.6166668
    473,    36.711113,   27.6222229
    474,    36.788887,   27.6277771
    475,   36.8666649,   27.6333332
    476,   36.9444427,   27.6388893
    477,   37.0222206,   27.6444435
    478,   37.0999985,   27.6499996
    479,   37.1777763,   27.6555557
    480,   37.2555542,   27.6611118
    481,   37.3333321,    27.666666
    482,   37.4111099,   27.6722221
    483,   37.4888878,   27.6777782
    484,   37.5666656,   27.6833324
    485,   37.6444435,   27.6888885
    486,   37.7222214,   27.6944447
    487,   37.7999992,   27.7000008
    488,   37.8777771,    27.705555
    489,    37.955555,   27.7111111
    490,   38.0333328,   27.7166672
    491,   38.1111107,   27.7222214
    492,   38.1888885,   27.7277775
    493,   38.2666664,   27.7333336
    494,   38.3444443,   27.7388897
    495,   38.4222221,   27.7444439
    496,         38.5,        27.75
    497,   38.5777779,   27.7555561
    498,   38.6555557,   27.7611103
    499,   38.7333336,   27.7666664
    500,   38.8111115,   27.7722225
    501,   38.8888893,   27.7777786
    502,   38.9666672,   27.7833328
    503,    39.044445,   27.7888889
    504,   39.1222229,    27.794445
    505,   39.2000008,   27.7999992
    506,   39.2777786,   27.8055553
    507,   39.3555565,   27.8111115
    508,   39.4333344,   27.8166676
    509,   39.5111122,   27.8222218
    510,   39.5888901,   27.8277779
    511,   39.6666679,    27.833334
    512,   39.7444458,   27.8388882
    513,   39.8222237,   27.8444443
    514,   39.9000015,   27.8500004
    515,   39.9777794,   27.8555565
    516,   40.0555573,   27.8611107
    517,   40.1333351,   27.8666668
    518,    40.211113,   27.8722229
    519,    40.288887,   27.8777771
    520,   40.3666649,   27.8833332
    521,   40.4444427,   27.8888893
    522,   40.5222206,   27.8944435
    523,   40.5999985,   27.8999996
    524,   40.6777763,   27.9055557
    525,   40.7555542,   27.9111118
    526,   40.8333321,    27.916666
    527,   40.9111099,   27.9222221
    528,   40.9888878,   27.9277782
    529,   41.0666656,   27.9333324
    530,   41.1444435,   27.9388885
    531,   41.2222214,   27.9444447
    532,   41.2999992,   27.9500008
    533,   41.3777771,    27.955555
    534,    41.455555,   27.9611111
    535,   41.5333328,   27.9666672
    536,   41.6111107,   27.9722214
    537,   41.6888885,   27.9777775
    538,   41.7666664,   27.9833336
    539,   41.8444443,   27.9888897
    540,   41.9222221,   27.9944439
    541,          42.,          28.
    542,   42.0777779,   28.0055561
    543,   42.1555557,   28.0111103
    544,   42.2333336,   28.0166664
    545,   42.3111115,   28.0222225
    546,   42.3888893,   28.0277786
    547,   42.4666672,   28.0333328
    548,    42.544445,   28.0388889
    549,   42.6222229,    28.044445
    550,   42.7000008,   28.0499992
    551,   42.7777786,   28.0555553
    552,   42.8555565,   28.0611115
    553,   42.9333344,   28.0666676
    554,   43.0111122,   28.0722218
    555,   43.0888901,   28.0777779
    556,   43.1666679,    28.083334
    557,   43.2444458,   28.0888882
    558,   43.3222237,   28.0944443
    559,   43.4000015,   28.1000004
    560,   43.4777794,   28.1055565
    561,   43.5555573,   28.1111107
    562,   43.6333351,   28.1166668
    563,    43.711113,   28.1222229
    564,    43.788887,   28.1277771
    565,   43.8666649,   28.1333332
    566,   43.9444427,   28.1388893
    567,   44.0222206,   28.1444435
    568,   44.0999985,   28.1499996
    569,   44.1777763,   28.1555557
    570,   44.2555542,   28.1611118
    571,   44.3333321,    28.166666
    572,   44.4111099,   28.1722221
    573,   44.4888878,   28.1777782
    574,   44.5666656,   28.1833324
    575,   44.6444435,   28.1888885
    576,   44.7222214,   28.1944447
    577,   44.7999992,   28.2000008
    578,   44.8777771,    28.205555
    579,    44.955555,   28.2111111
    580,   45.0333328,   28.2166672
    581,   45.1111107,   28.2222214
    582,   45.1888885,   28.2277775
    583,   45.2666664,   28.2333336
    584,   45.3444443,   28.2388897
    585,   45.4222221,   28.2444439
    586,         45.5,        28.25
    587,   45.5777779,   28.2555561
    588,   45.6555557,   28.2611103
    589,   45.7333336,   28.2666664
    590,   45.8111115,   28.2722225
    591,   45.8888893,   28.2777786
    592,   45.9666672,   28.2833328
    593,    46.044445,   28.2888889
    594,   46.1222229,    28.294445
    595,   46.2000008,   28.2999992
    596,   46.2777786,   28.3055553
    597,   46.3555565,   28.3111115
    598,   46.4333344,   28.3166676
    599,   46.5111122,   28.3222218
    600,   46.5888901,   28.3277779
    601,   46.6666679,    28.333334
    602,   46.7444458,   28.3388882
    603,   46.8222237,   28.3444443
    604,   46.9000015,   28.3500004
    605,   46.9777794,   28.3555565
    606,   47.0555573,   28.3611107
    607,   47.1333351,   28.3666668
    608,    47.211113,   28.3722229
    609,    47.288887,   28.3777771
    610,   47.3666649,   28.3833332
    611,   47.4444427,   28.3888893
    612,   47.5222206,   28.3944435
    613,   47.5999985,   28.3999996
    614,   47.6777763,   28.4055557
    615,   47.7555542,   28.4111118
    616,   47.8333321,    28.416666
    617,   47.9111099,   28.4222221
    618,   47.9888878,   28.4277782
    619,   48.0666656,   28.4333324
    620,   48.1444435,   28.4388885
    621,   48.2222214,   28.4444447
    622,   48.2999992,   28.4500008
    623,   48.3777771,    28.455555
    624,    48.455555,   28.4611111
    625,   48.5333328,   28.4666672
    626,   48.6111107,   28.4722214
    627,   48.6888885,   28.4777775
    628,   48.7666664,   28.4833336
    629,   48.8444443,   28.4888897
    630,   48.9222221,   28.4944439
    631,          49.,         28.5
    632,   49.0777779,   28.5055561
    633,   49.1555557,   28.5111103
    634,   49.2333336,   28.5166664
    635,   49.3111115,   28.5222225
    636,   49.3888893,   28.5277786
    637,   49.4666672,   28.5333328
    638,    49.544445,   28.5388889
    639,   49.6222229,    28.544445
    640,   49.7000008,   28.5499992
    641,   49.7777786,   28.5555553
    642,   49.8555565,   28.5611115
    643,   49.9333344,   28.5666676
    644,   50.0111122,   28.5722218
    645,   50.0888901,   28.5777779
    646,   50.1666679,    28.583334
    647,   50.2444458,   28.5888882
    648,   50.3222237,   28.5944443
    649,   50.4000015,   28.6000004
    650,   50.4777794,   28.6055565
    651,   50.5555573,   28.6111107
    652,   50.6333351,   28.6166668
    653,    50.711113,   28.6222229
    654,    50.788887,   28.6277771
    655,   50.8666649,   28.6333332
    656,   50.9444427,   28.6388893
    657,   51.0222206,   28.6444435
    658,   51.0999985,   28.6499996
    659,   51.1777763,   28.6555557
    660,   51.2555542,   28.6611118
    661,   51.3333321,    28.666666
    662,   51.4111099,   28.6722221
    663,   51.4888878,   28.6777782
    664,   51.5666656,   28.6833324
    665,   51.6444435,   28.6888885
    666,   51.7222214,   28.6944447
    667,   51.7999992,   28.7000008
    668,   51.8777771,    28.705555
    669,    51.955555,   28.7111111
    670,   52.0333328,   28.7166672
    671,   52.1111107,   28.7222214
    672,   52.1888885,   28.7277775
    673,   52.2666664,   28.7333336
    674,   52.3444443,   28.7388897
    675,   52.4222221,   28.7444439
    676,         52.5,        28.75
    677,   52.5777779,   28.7555561
    678,   52.6555557,   28.7611103
    679,   52.7333336,   28.7666664
    680,   52.8111115,   28.7722225
    681,   52.8888893,   28.7777786
    682,   52.9666672,   28.7833328
    683,    53.044445,   28.7888889
    684,   53.1222229,    28.794445
    685,   53.2000008,   28.7999992
    686,   53.2777786,   28.8055553
    687,   53.3555565,   28.8111115
    688,   53.4333344,   28.8166676
    689,   53.5111122,   28.8222218
    690,   53.5888901,   28.8277779
    691,   53.6666679,    28.833334
    692,   53.7444458,   28.8388882
    693,   53.8222237,   28.8444443
    694,   53.9000015,   28.8500004
    695,   53.9777794,   28.8555565
    696,   54.0555573,   28.8611107
    697,   54.1333351,   28.8666668
    698,    54.211113,   28.8722229
    699,    54.288887,   28.8777771
    700,   54.3666649,   28.8833332
    701,   54.4444427,   28.8888893
    702,   54.5222206,   28.8944435
    703,   54.5999985,   28.8999996
    704,   54.6777763,   28.9055557
    705,   54.7555542,   28.9111118
    706,   54.8333321,    28.916666
    707,   54.9111099,   28.9222221
    708,   54.9888878,   28.9277782
    709,   55.0666656,   28.9333324
    710,   55.1444435,   28.9388885
    711,   55.2222214,   28.9444447
    712,   55.2999992,   28.9500008
    713,   55.3777771,    28.955555
    714,    55.455555,   28.9611111
    715,   55.5333328,   28.9666672
    716,   55.6111107,   28.9722214
    717,   55.6888885,   28.9777775
    718,   55.7666664,   28.9833336
    719,   55.8444443,   28.9888897
    720,   55.9222221,   28.9944439
    721,          56.,          29.
    722,   56.0777779,   29.0055561
    723,   56.1555557,   29.0111103
    724,   56.2333336,   29.0166664
    725,   56.3111115,   29.0222225
    726,   56.3888893,   29.0277786
    727,   56.4666672,   29.0333328
    728,    56.544445,   29.0388889
    729,   56.6222229,    29.044445
    730,   56.7000008,   29.0499992
    731,   56.7777786,   29.0555553
    732,   56.8555565,   29.0611115
    733,   56.9333344,   29.0666676
    734,   57.0111122,   29.0722218
    735,   57.0888901,   29.0777779
    736,   57.1666679,    29.083334
    737,   57.2444458,   29.0888882
    738,   57.3222237,   29.0944443
    739,   57.4000015,   29.1000004
    740,   57.4777794,   29.1055565
    741,   57.5555573,   29.1111107
    742,   57.6333351,   29.1166668
    743,    57.711113,   29.1222229
    744,    57.788887,   29.1277771
    745,   57.8666649,   29.1333332
    746,   57.9444427,   29.1388893
    747,   58.0222206,   29.1444435
    748,   58.0999985,   29.1499996
    749,   58.1777763,   29.1555557
    750,   58.2555542,   29.1611118
    751,   58.3333321,    29.166666
    752,   58.4111099,   29.1722221
    753,   58.4888878,   29.1777782
    754,   58.5666656,   29.1833324
    755,   58.6444435,   29.1888885
    756,   58.7222214,   29.1944447
    757,   58.7999992,   29.2000008
    758,   58.8777771,    29.205555
    759,    58.955555,   29.2111111
    760,   59.0333328,   29.2166672
    761,   59.1111107,   29.2222214
    762,   59.1888885,   29.2277775
    763,   59.2666664,   29.2333336
    764,   59.3444443,   29.2388897
    765,   59.4222221,   29.2444439
    766,         59.5,        29.25
    767,   59.5777779,   29.2555561
    768,   59.6555557,   29.2611103
    769,   59.7333336,   29.2666664
    770,   59.8111115,   29.2722225
    771,   59.8888893,   29.2777786
    772,   59.9666672,   29.2833328
    773,    60.044445,   29.2888889
    774,   60.1222229,    29.294445
    775,   60.2000008,   29.2999992
    776,   60.2777786,   29.3055553
    777,   60.3555565,   29.3111115
    778,   60.4333344,   29.3166676
    779,   60.5111122,   29.3222218
    780,   60.5888901,   29.3277779
    781,   60.6666679,    29.333334
    782,   60.7444458,   29.3388882
    783,   60.8222237,   29.3444443
    784,   60.9000015,   29.3500004
    785,   60.9777794,   29.3555565
    786,   61.0555573,   29.3611107
    787,   61.1333351,   29.3666668
    788,    61.211113,   29.3722229
    789,    61.288887,   29.3777771
    790,   61.3666649,   29.3833332
    791,   61.4444427,   29.3888893
    792,   61.5222206,   29.3944435
    793,   61.5999985,   29.3999996
    794,   61.6777763,   29.4055557
    795,   61.7555542,   29.4111118
    796,   61.8333321,    29.416666
    797,   61.9111099,   29.4222221
    798,   61.9888878,   29.4277782
    799,   62.0666656,   29.4333324
    800,   62.1444435,   29.4388885
    801,   62.2222214,   29.4444447
    802,   62.2999992,   29.4500008
    803,   62.3777771,    29.455555
    804,    62.455555,   29.4611111
    805,   62.5333328,   29.4666672
    806,   62.6111107,   29.4722214
    807,   62.6888885,   29.4777775
    808,   62.7666664,   29.4833336
    809,   62.8444443,   29.4888897
    810,   62.9222221,   29.4944439
    811,          63.,         29.5
    812,   63.0777779,   29.5055561
    813,   63.1555557,   29.5111103
    814,   63.2333336,   29.5166664
    815,   63.3111115,   29.5222225
    816,   63.3888893,   29.5277786
    817,   63.4666672,   29.5333328
    818,    63.544445,   29.5388889
    819,   63.6222229,    29.544445
    820,   63.7000008,   29.5499992
    821,   63.7777786,   29.5555553
    822,   63.8555565,   29.5611115
    823,   63.9333344,   29.5666676
    824,   64.0111084,   29.5722218
    825,   64.0888901,   29.5777779
    826,   64.1666641,    29.583334
    827,   64.2444458,   29.5888882
    828,   64.3222198,   29.5944443
    829,   64.4000015,   29.6000004
    830,   64.4777756,   29.6055565
    831,   64.5555573,   29.6111107
    832,   64.6333313,   29.6166668
    833,    64.711113,   29.6222229
    834,    64.788887,   29.6277771
    835,   64.8666687,   29.6333332
    836,   64.9444427,   29.6388893
    837,   65.0222244,   29.6444435
    838,   65.0999985,   29.6499996
    839,   65.1777802,   29.6555557
    840,   65.2555542,   29.6611118
    841,   65.3333359,    29.666666
    842,   65.4111099,   29.6722221
    843,   65.4888916,   29.6777782
    844,   65.5666656,   29.6833324
    845,   65.6444473,   29.6888885
    846,   65.7222214,   29.6944447
    847,   65.8000031,   29.7000008
    848,   65.8777771,    29.705555
    849,   65.9555588,   29.7111111
    850,   66.0333328,   29.7166672
    851,   66.1111145,   29.7222214
    852,   66.1888885,   29.7277775
    853,   66.2666702,   29.7333336
    854,   66.3444443,   29.7388897
    855,    66.422226,   29.7444439
    856,         66.5,        29.75
    857,    66.577774,   29.7555561
    858,   66.6555557,   29.7611103
    859,   66.7333298,   29.7666664
    860,   66.8111115,   29.7722225
    861,   66.8888855,   29.7777786
    862,   66.9666672,   29.7833328
    863,   67.0444412,   29.7888889
    864,   67.1222229,    29.794445
    865,   67.1999969,   29.7999992
    866,   67.2777786,   29.8055553
    867,   67.3555527,   29.8111115
    868,   67.4333344,   29.8166676
    869,   67.5111084,   29.8222218
    870,   67.5888901,   29.8277779
    871,   67.6666641,    29.833334
    872,   67.7444458,   29.8388882
    873,   67.8222198,   29.8444443
    874,   67.9000015,   29.8500004
    875,   67.9777756,   29.8555565
    876,   68.0555573,   29.8611107
    877,   68.1333313,   29.8666668
    878,    68.211113,   29.8722229
    879,    68.288887,   29.8777771
    880,   68.3666687,   29.8833332
    881,   68.4444427,   29.8888893
    882,   68.5222244,   29.8944435
    883,   68.5999985,   29.8999996
    884,   68.6777802,   29.9055557
    885,   68.7555542,   29.9111118
    886,   68.8333359,    29.916666
    887,   68.9111099,   29.9222221
    888,   68.9888916,   29.9277782
    889,   69.0666656,   29.9333324
    890,   69.1444473,   29.9388885
    891,   69.2222214,   29.9444447
    892,   69.3000031,   29.9500008
    893,   69.3777771,    29.955555
    894,   69.4555588,   29.9611111
    895,   69.5333328,   29.9666672
    896,   69.6111145,   29.9722214
    897,   69.6888885,   29.9777775
    898,   69.7666702,   29.9833336
    899,   69.8444443,   29.9888897
    900,    69.922226,   29.9944439
    901,          70.,          30.
*Element, type=B21
  1,   1,   2
  2,   2,   3
  3,   3,   4
  4,   4,   5
  5,   5,   6
  6,   6,   7
  7,   7,   8
  8,   8,   9
  9,   9,  10
 10,  10,  11
 11,  11,  12
 12,  12,  13
 13,  13,  14
 14,  14,  15
 15,  15,  16
 16,  16,  17
 17,  17,  18
 18,  18,  19
 19,  19,  20
 20,  20,  21
 21,  21,  22
 22,  22,  23
 23,  23,  24
 24,  24,  25
 25,  25,  26
 26,  26,  27
 27,  27,  28
 28,  28,  29
 29,  29,  30
 30,  30,  31
 31,  31,  32
 32,  32,  33
 33,  33,  34
 34,  34,  35
 35,  35,  36
 36,  36,  37
 37,  37,  38
 38,  38,  39
 39,  39,  40
 40,  40,  41
 41,  41,  42
 42,  42,  43
 43,  43,  44
 44,  44,  45
 45,  45,  46
 46,  46,  47
 47,  47,  48
 48,  48,  49
 49,  49,  50
 50,  50,  51
 51,  51,  52
 52,  52,  53
 53,  53,  54
 54,  54,  55
 55,  55,  56
 56,  56,  57
 57,  57,  58
 58,  58,  59
 59,  59,  60
 60,  60,  61
 61,  61,  62
 62,  62,  63
 63,  63,  64
 64,  64,  65
 65,  65,  66
 66,  66,  67
 67,  67,  68
 68,  68,  69
 69,  69,  70
 70,  70,  71
 71,  71,  72
 72,  72,  73
 73,  73,  74
 74,  74,  75
 75,  75,  76
 76,  76,  77
 77,  77,  78
 78,  78,  79
 79,  79,  80
 80,  80,  81
 81,  81,  82
 82,  82,  83
 83,  83,  84
 84,  84,  85
 85,  85,  86
 86,  86,  87
 87,  87,  88
 88,  88,  89
 89,  89,  90
 90,  90,  91
 91,  91,  92
 92,  92,  93
 93,  93,  94
 94,  94,  95
 95,  95,  96
 96,  96,  97
 97,  97,  98
 98,  98,  99
 99,  99, 100
100, 100, 101
101, 101, 102
102, 102, 103
103, 103, 104
104, 104, 105
105, 105, 106
106, 106, 107
107, 107, 108
108, 108, 109
109, 109, 110
110, 110, 111
111, 111, 112
112, 112, 113
113, 113, 114
114, 114, 115
115, 115, 116
116, 116, 117
117, 117, 118
118, 118, 119
119, 119, 120
120, 120, 121
121, 121, 122
122, 122, 123
123, 123, 124
124, 124, 125
125, 125, 126
126, 126, 127
127, 127, 128
128, 128, 129
129, 129, 130
130, 130, 131
131, 131, 132
132, 132, 133
133, 133, 134
134, 134, 135
135, 135, 136
136, 136, 137
137, 137, 138
138, 138, 139
139, 139, 140
140, 140, 141
141, 141, 142
142, 142, 143
143, 143, 144
144, 144, 145
145, 145, 146
146, 146, 147
147, 147, 148
148, 148, 149
149, 149, 150
150, 150, 151
151, 151, 152
152, 152, 153
153, 153, 154
154, 154, 155
155, 155, 156
156, 156, 157
157, 157, 158
158, 158, 159
159, 159, 160
160, 160, 161
161, 161, 162
162, 162, 163
163, 163, 164
164, 164, 165
165, 165, 166
166, 166, 167
167, 167, 168
168, 168, 169
169, 169, 170
170, 170, 171
171, 171, 172
172, 172, 173
173, 173, 174
174, 174, 175
175, 175, 176
176, 176, 177
177, 177, 178
178, 178, 179
179, 179, 180
180, 180, 181
181, 181, 182
182, 182, 183
183, 183, 184
184, 184, 185
185, 185, 186
186, 186, 187
187, 187, 188
188, 188, 189
189, 189, 190
190, 190, 191
191, 191, 192
192, 192, 193
193, 193, 194
194, 194, 195
195, 195, 196
196, 196, 197
197, 197, 198
198, 198, 199
199, 199, 200
200, 200, 201
201, 201, 202
202, 202, 203
203, 203, 204
204, 204, 205
205, 205, 206
206, 206, 207
207, 207, 208
208, 208, 209
209, 209, 210
210, 210, 211
211, 211, 212
212, 212, 213
213, 213, 214
214, 214, 215
215, 215, 216
216, 216, 217
217, 217, 218
218, 218, 219
219, 219, 220
220, 220, 221
221, 221, 222
222, 222, 223
223, 223, 224
224, 224, 225
225, 225, 226
226, 226, 227
227, 227, 228
228, 228, 229
229, 229, 230
230, 230, 231
231, 231, 232
232, 232, 233
233, 233, 234
234, 234, 235
235, 235, 236
236, 236, 237
237, 237, 238
238, 238, 239
239, 239, 240
240, 240, 241
241, 241, 242
242, 242, 243
243, 243, 244
244, 244, 245
245, 245, 246
246, 246, 247
247, 247, 248
248, 248, 249
249, 249, 250
250, 250, 251
251, 251, 252
252, 252, 253
253, 253, 254
254, 254, 255
255, 255, 256
256, 256, 257
257, 257, 258
258, 258, 259
259, 259, 260
260, 260, 261
261, 261, 262
262, 262, 263
263, 263, 264
264, 264, 265
265, 265, 266
266, 266, 267
267, 267, 268
268, 268, 269
269, 269, 270
270, 270, 271
271, 271, 272
272, 272, 273
273, 273, 274
274, 274, 275
275, 275, 276
276, 276, 277
277, 277, 278
278, 278, 279
279, 279, 280
280, 280, 281
281, 281, 282
282, 282, 283
283, 283, 284
284, 284, 285
285, 285, 286
286, 286, 287
287, 287, 288
288, 288, 289
289, 289, 290
290, 290, 291
291, 291, 292
292, 292, 293
293, 293, 294
294, 294, 295
295, 295, 296
296, 296, 297
297, 297, 298
298, 298, 299
299, 299, 300
300, 300, 301
301, 301, 302
302, 302, 303
303, 303, 304
304, 304, 305
305, 305, 306
306, 306, 307
307, 307, 308
308, 308, 309
309, 309, 310
310, 310, 311
311, 311, 312
312, 312, 313
313, 313, 314
314, 314, 315
315, 315, 316
316, 316, 317
317, 317, 318
318, 318, 319
319, 319, 320
320, 320, 321
321, 321, 322
322, 322, 323
323, 323, 324
324, 324, 325
325, 325, 326
326, 326, 327
327, 327, 328
328, 328, 329
329, 329, 330
330, 330, 331
331, 331, 332
332, 332, 333
333, 333, 334
334, 334, 335
335, 335, 336
336, 336, 337
337, 337, 338
338, 338, 339
339, 339, 340
340, 340, 341
341, 341, 342
342, 342, 343
343, 343, 344
344, 344, 345
345, 345, 346
346, 346, 347
347, 347, 348
348, 348, 349
349, 349, 350
350, 350, 351
351, 351, 352
352, 352, 353
353, 353, 354
354, 354, 355
355, 355, 356
356, 356, 357
357, 357, 358
358, 358, 359
359, 359, 360
360, 360, 361
361, 361, 362
362, 362, 363
363, 363, 364
364, 364, 365
365, 365, 366
366, 366, 367
367, 367, 368
368, 368, 369
369, 369, 370
370, 370, 371
371, 371, 372
372, 372, 373
373, 373, 374
374, 374, 375
375, 375, 376
376, 376, 377
377, 377, 378
378, 378, 379
379, 379, 380
380, 380, 381
381, 381, 382
382, 382, 383
383, 383, 384
384, 384, 385
385, 385, 386
386, 386, 387
387, 387, 388
388, 388, 389
389, 389, 390
390, 390, 391
391, 391, 392
392, 392, 393
393, 393, 394
394, 394, 395
395, 395, 396
396, 396, 397
397, 397, 398
398, 398, 399
399, 399, 400
400, 400, 401
401, 401, 402
402, 402, 403
403, 403, 404
404, 404, 405
405, 405, 406
406, 406, 407
407, 407, 408
408, 408, 409
409, 409, 410
410, 410, 411
411, 411, 412
412, 412, 413
413, 413, 414
414, 414, 415
415, 415, 416
416, 416, 417
417, 417, 418
418, 418, 419
419, 419, 420
420, 420, 421
421, 421, 422
422, 422, 423
423, 423, 424
424, 424, 425
425, 425, 426
426, 426, 427
427, 427, 428
428, 428, 429
429, 429, 430
430, 430, 431
431, 431, 432
432, 432, 433
433, 433, 434
434, 434, 435
435, 435, 436
436, 436, 437
437, 437, 438
438, 438, 439
439, 439, 440
440, 440, 441
441, 441, 442
442, 442, 443
443, 443, 444
444, 444, 445
445, 445, 446
446, 446, 447
447, 447, 448
448, 448, 449
449, 449, 450
450, 450, 451
451, 451, 452
452, 452, 453
453, 453, 454
454, 454, 455
455, 455, 456
456, 456, 457
457, 457, 458
458, 458, 459
459, 459, 460
460, 460, 461
461, 461, 462
462, 462, 463
463, 463, 464
464, 464, 465
465, 465, 466
466, 466, 467
467, 467, 468
468, 468, 469
469, 469, 470
470, 470, 471
471, 471, 472
472, 472, 473
473, 473, 474
474, 474, 475
475, 475, 476
476, 476, 477
477, 477, 478
478, 478, 479
479, 479, 480
480, 480, 481
481, 481, 482
482, 482, 483
483, 483, 484
484, 484, 485
485, 485, 486
486, 486, 487
487, 487, 488
488, 488, 489
489, 489, 490
490, 490, 491
491, 491, 492
492, 492, 493
493, 493, 494
494, 494, 495
495, 495, 496
496, 496, 497
497, 497, 498
498, 498, 499
499, 499, 500
500, 500, 501
501, 501, 502
502, 502, 503
503, 503, 504
504, 504, 505
505, 505, 506
506, 506, 507
507, 507, 508
508, 508, 509
509, 509, 510
510, 510, 511
511, 511, 512
512, 512, 513
513, 513, 514
514, 514, 515
515, 515, 516
516, 516, 517
517, 517, 518
518, 518, 519
519, 519, 520
520, 520, 521
521, 521, 522
522, 522, 523
523, 523, 524
524, 524, 525
525, 525, 526
526, 526, 527
527, 527, 528
528, 528, 529
529, 529, 530
530, 530, 531
531, 531, 532
532, 532, 533
533, 533, 534
534, 534, 535
535, 535, 536
536, 536, 537
537, 537, 538
538, 538, 539
539, 539, 540
540, 540, 541
541, 541, 542
542, 542, 543
543, 543, 544
544, 544, 545
545, 545, 546
546, 546, 547
547, 547, 548
548, 548, 549
549, 549, 550
550, 550, 551
551, 551, 552
552, 552, 553
553, 553, 554
554, 554, 555
555, 555, 556
556, 556, 557
557, 557, 558
558, 558, 559
559, 559, 560
560, 560, 561
561, 561, 562
562, 562, 563
563, 563, 564
564, 564, 565
565, 565, 566
566, 566, 567
567, 567, 568
568, 568, 569
569, 569, 570
570, 570, 571
571, 571, 572
572, 572, 573
573, 573, 574
574, 574, 575
575, 575, 576
576, 576, 577
577, 577, 578
578, 578, 579
579, 579, 580
580, 580, 581
581, 581, 582
582, 582, 583
583, 583, 584
584, 584, 585
585, 585, 586
586, 586, 587
587, 587, 588
588, 588, 589
589, 589, 590
590, 590, 591
591, 591, 592
592, 592, 593
593, 593, 594
594, 594, 595
595, 595, 596
596, 596, 597
597, 597, 598
598, 598, 599
599, 599, 600
600, 600, 601
601, 601, 602
602, 602, 603
603, 603, 604
604, 604, 605
605, 605, 606
606, 606, 607
607, 607, 608
608, 608, 609
609, 609, 610
610, 610, 611
611, 611, 612
612, 612, 613
613, 613, 614
614, 614, 615
615, 615, 616
616, 616, 617
617, 617, 618
618, 618, 619
619, 619, 620
620, 620, 621
621, 621, 622
622, 622, 623
623, 623, 624
624, 624, 625
625, 625, 626
626, 626, 627
627, 627, 628
628, 628, 629
629, 629, 630
630, 630, 631
631, 631, 632
632, 632, 633
633, 633, 634
634, 634, 635
635, 635, 636
636, 636, 637
637, 637, 638
638, 638, 639
639, 639, 640
640, 640, 641
641, 641, 642
642, 642, 643
643, 643, 644
644, 644, 645
645, 645, 646
646, 646, 647
647, 647, 648
648, 648, 649
649, 649, 650
650, 650, 651
651, 651, 652
652, 652, 653
653, 653, 654
654, 654, 655
655, 655, 656
656, 656, 657
657, 657, 658
658, 658, 659
659, 659, 660
660, 660, 661
661, 661, 662
662, 662, 663
663, 663, 664
664, 664, 665
665, 665, 666
666, 666, 667
667, 667, 668
668, 668, 669
669, 669, 670
670, 670, 671
671, 671, 672
672, 672, 673
673, 673, 674
674, 674, 675
675, 675, 676
676, 676, 677
677, 677, 678
678, 678, 679
679, 679, 680
680, 680, 681
681, 681, 682
682, 682, 683
683, 683, 684
684, 684, 685
685, 685, 686
686, 686, 687
687, 687, 688
688, 688, 689
689, 689, 690
690, 690, 691
691, 691, 692
692, 692, 693
693, 693, 694
694, 694, 695
695, 695, 696
696, 696, 697
697, 697, 698
698, 698, 699
699, 699, 700
700, 700, 701
701, 701, 702
702, 702, 703
703, 703, 704
704, 704, 705
705, 705, 706
706, 706, 707
707, 707, 708
708, 708, 709
709, 709, 710
710, 710, 711
711, 711, 712
712, 712, 713
713, 713, 714
714, 714, 715
715, 715, 716
716, 716, 717
717, 717, 718
718, 718, 719
719, 719, 720
720, 720, 721
721, 721, 722
722, 722, 723
723, 723, 724
724, 724, 725
725, 725, 726
726, 726, 727
727, 727, 728
728, 728, 729
729, 729, 730
730, 730, 731
731, 731, 732
732, 732, 733
733, 733, 734
734, 734, 735
735, 735, 736
736, 736, 737
737, 737, 738
738, 738, 739
739, 739, 740
740, 740, 741
741, 741, 742
742, 742, 743
743, 743, 744
744, 744, 745
745, 745, 746
746, 746, 747
747, 747, 748
748, 748, 749
749, 749, 750
750, 750, 751
751, 751, 752
752, 752, 753
753, 753, 754
754, 754, 755
755, 755, 756
756, 756, 757
757, 757, 758
758, 758, 759
759, 759, 760
760, 760, 761
761, 761, 762
762, 762, 763
763, 763, 764
764, 764, 765
765, 765, 766
766, 766, 767
767, 767, 768
768, 768, 769
769, 769, 770
770, 770, 771
771, 771, 772
772, 772, 773
773, 773, 774
774, 774, 775
775, 775, 776
776, 776, 777
777, 777, 778
778, 778, 779
779, 779, 780
780, 780, 781
781, 781, 782
782, 782, 783
783, 783, 784
784, 784, 785
785, 785, 786
786, 786, 787
787, 787, 788
788, 788, 789
789, 789, 790
790, 790, 791
791, 791, 792
792, 792, 793
793, 793, 794
794, 794, 795
795, 795, 796
796, 796, 797
797, 797, 798
798, 798, 799
799, 799, 800
800, 800, 801
801, 801, 802
802, 802, 803
803, 803, 804
804, 804, 805
805, 805, 806
806, 806, 807
807, 807, 808
808, 808, 809
809, 809, 810
810, 810, 811
811, 811, 812
812, 812, 813
813, 813, 814
814, 814, 815
815, 815, 816
816, 816, 817
817, 817, 818
818, 818, 819
819, 819, 820
820, 820, 821
821, 821, 822
822, 822, 823
823, 823, 824
824, 824, 825
825, 825, 826
826, 826, 827
827, 827, 828
828, 828, 829
829, 829, 830
830, 830, 831
831, 831, 832
832, 832, 833
833, 833, 834
834, 834, 835
835, 835, 836
836, 836, 837
837, 837, 838
838, 838, 839
839, 839, 840
840, 840, 841
841, 841, 842
842, 842, 843
843, 843, 844
844, 844, 845
845, 845, 846
846, 846, 847
847, 847, 848
848, 848, 849
849, 849, 850
850, 850, 851
851, 851, 852
852, 852, 853
853, 853, 854
854, 854, 855
855, 855, 856
856, 856, 857
857, 857, 858
858, 858, 859
859, 859, 860
860, 860, 861
861, 861, 862
862, 862, 863
863, 863, 864
864, 864, 865
865, 865, 866
866, 866, 867
867, 867, 868
868, 868, 869
869, 869, 870
870, 870, 871
871, 871, 872
872, 872, 873
873, 873, 874
874, 874, 875
875, 875, 876
876, 876, 877
877, 877, 878
878, 878, 879
879, 879, 880
880, 880, 881
881, 881, 882
882, 882, 883
883, 883, 884
884, 884, 885
885, 885, 886
886, 886, 887
887, 887, 888
888, 888, 889
889, 889, 890
890, 890, 891
891, 891, 892
892, 892, 893
893, 893, 894
894, 894, 895
895, 895, 896
896, 896, 897
897, 897, 898
898, 898, 899
899, 899, 900
900, 900, 901
*Nset, nset=VIGA_PRINCIPAL, generate
   1,  901,    1
*Elset, elset=VIGA_PRINCIPAL, generate
   1,  900,    1
*Nset, nset=Set-2, generate
   1,  901,    1
*Elset, elset=Set-2, generate
   1,  900,    1
** Section: VIGA_PRINCIPAL  Profile: Viga_principal
*Beam Section, elset=VIGA_PRINCIPAL, material="ACERO0 TIPO 2", temperature=GRADIENTS, section=I
0.1, 0.8, 0.6, 0.6, 0.05, 0.05, 0.05
0.,0.,-1.
*End Part
**  
**
** ASSEMBLY
**
*Assembly, name=Assembly
**  
*Instance, name=VIGA-1, part=VIGA
*End Instance
**  
*Nset, nset=Set-1, instance=VIGA-1, generate
   1,  901,    1
*Elset, elset=Set-1, instance=VIGA-1, generate
   1,  900,    1
*Nset, nset=Set-2, instance=VIGA-1
   1, 901
*End Assembly
** 
** MATERIALS
** 
*Material, name="ACERO0 TIPO 1"
*Density
7800.,
*Elastic
 2.1e+11, 0.3
*Material, name="ACERO0 TIPO 2"
*Density
8750.,
*Elastic
 2.3e+11, 0.3
*Material, name=HORMIGON
*Density
2300.,
*Elastic
 2.7e+10, 0.2
** ----------------------------------------------------------------
** 
** STEP: Step-1
** 
*Step, name=Step-1, nlgeom=NO
*Static
1., 1., 1e-05, 1.
** 
** BOUNDARY CONDITIONS
** 
** Name: APOYO Type: Displacement/Rotation
*Boundary
Set-2, 1, 1
Set-2, 2, 2
** 
** LOADS
** 
** Name: CARGA   Type: Line load
*Dload
Set-1, PY, -110000.
** 
** OUTPUT REQUESTS
** 
*Restart, write, frequency=0
** 
** FIELD OUTPUT: F-Output-1
** 
*Output, field, variable=PRESELECT
** 
** HISTORY OUTPUT: H-Output-1
** 
*Output, history
*Element Output
MASS, 
*Energy Output
ALLAE, ALLCD, ALLDMD, ALLEE, ALLFD, ALLIE, ALLJD, ALLKE, ALLKL, ALLPD, ALLQB, ALLSD, ALLSE, ALLVD, ALLWK, ETOTAL
*End Step
